NAME: bip_30_7
TYPE: TSP
COMMENT: bip_30_7
DIMENSION: 30
EDGE_WEIGHT_TYPE: EUC_2D
NODE_COORD_SECTION
1 7 5
2 47 56
3 17 50
4 54 59
5 27 41
6 97 78
7 2 97
8 6 39
9 56 20
10 94 95
11 84 47
12 57 77
13 60 66
14 8 69
15 7 3
16 499 412
17 425 465
18 474 418
19 420 460
20 414 495
21 495 453
22 479 453
23 408 406
24 452 453
25 454 403
26 489 414
27 477 419
28 425 485
29 489 435
30 480 422
